c SAT problem
p wcnf 48 196
1 -60 75 0
1 -75 -3150 0
1 -90 -3105 0
1 90 3075 0
1 -90 105 0
1 -90 -3060 0
1 105 3105 0
1 -105 -3060 0
1 -3120 -196 0
1 -3120 -165 0
1 3120 135 0
1 -3120 3121 0
1 -3120 181 0
1 3120 150 0
1 3120 -120 0
1 3120 -3135 0
1 3135 -196 0
1 -3135 -165 0
1 3135 -75 0
1 3135 150 0
1 -3135 90 0
1 -3150 -196 0
1 3150 -166 0
1 3150 -3151 0
1 3150 181 0
1 3150 121 0
1 -3150 3165 0
1 3165 166 0
1 -3165 105 0
1 -3165 3150 0
1 -3165 181 0
1 -3165 -151 0
1 3165 -90 0
1 -120 3105 0
1 120 135 0
1 120 121 0
1 120 -3135 0
1 135 -3105 0
1 -135 -3075 0
1 135 -3120 0
1 -150 3060 0
1 -150 -3030 0
1 165 3015 0
1 -165 -3090 0
1 -165 150 0
1 -165 3000 0
1 165 -3135 0
1 3060 195 0
1 -3060 3075 0
1 3060 -165 0
1 -3060 -135 0
1 -3060 105 0
1 3060 180 0
1 3060 90 0
1 3060 -255 0
1 3075 -195 0
1 3075 135 0
1 3075 -105 0
1 3075 -3060 0
1 3075 90 0
1 3090 196 0
1 -3090 165 0
1 -3090 -135 0
1 -3090 211 0
1 3105 -105 0
1 -3105 -240 0
1 -3105 3090 0
1 -3105 -90 0
1 180 195 0
1 180 3060 0
1 180 -3030 0
1 -180 3000 0
1 -195 3075 0
1 -195 -3045 0
1 195 -3060 0
1 195 3000 0
1 -210 -225 0
1 -210 -3075 0
1 -210 3045 0
1 -225 -226 0
1 -225 -3045 0
1 225 -3015 0
1 225 -210 0
1 -225 3060 0
1 225 -3030 0
1 -3000 -225 0
1 3000 195 0
1 -3000 3015 0
1 3000 -210 0
1 -3000 150 0
1 3015 210 0
1 -3030 -195 0
1 3030 165 0
1 3030 240 0
1 -3030 -180 0
1 -3030 150 0
1 -3030 -285 0
1 3045 195 0
1 3045 270 0
1 -3045 -180 0
1 -3045 150 0
1 -3045 255 0
1 121 120 0
1 -136 3150 0
1 136 121 0
1 136 3165 0
1 151 166 0
1 151 3240 0
1 -151 -3255 0
1 -151 3225 0
1 -151 3165 0
1 166 -3255 0
1 166 -3210 0
1 -166 3180 0
1 -166 -3150 0
1 166 151 0
1 -166 -3225 0
1 -166 3165 0
1 -3240 -226 0
1 3240 196 0
1 3240 -211 0
1 -3240 151 0
1 3255 166 0
1 -3255 121 0
1 3270 121 0
1 3285 -151 0
1 3285 121 0
1 -181 3105 0
1 -181 3240 0
1 181 -3210 0
1 -181 -3180 0
1 -181 -3090 0
1 -181 -3255 0
1 181 -3195 0
1 181 -3135 0
1 -196 195 0
1 196 -3165 0
1 211 3136 0
1 211 -3240 0
1 211 -3210 0
1 211 3180 0
1 -211 -3151 0
1 -211 -3121 0
1 211 210 0
1 -211 3195 0
1 -226 225 0
1 -226 3105 0
1 226 3225 0
1 3180 -226 0
1 3180 196 0
1 -3180 270 0
1 -3180 -211 0
1 3180 181 0
1 -3180 151 0
1 -3180 285 0
1 3180 255 0
1 3195 -166 0
1 -3195 -270 0
1 3195 -285 0
1 -3225 -196 0
1 -3225 166 0
1 3225 -211 0
1 3225 181 0
1 240 -3105 0
1 -240 3075 0
1 -240 -3045 0
1 240 3180 0
1 -240 3090 0
1 -240 3166 0
1 -240 -255 0
1 255 -3075 0
1 -255 3045 0
1 255 3121 0
1 270 -3136 0
1 -270 3030 0
1 270 3195 0
1 -270 -3166 0
1 -285 -3045 0
1 -285 3180 0
1 -285 -3121 0
1 285 -3030 0
1 -285 3166 0
1 -285 3195 0
1 3121 270 0
1 3121 240 0
1 3121 -211 0
1 -3136 226 0
1 -3136 240 0
1 -3136 -3135 0
1 3136 -255 0
1 -3151 -270 0
1 -3151 -3150 0
1 3151 -211 0
1 -3166 -270 0
1 -3166 285 0
1 -3166 -255 0
